
Gurobi 12.0.2 (win64) logging started Fri Jun  6 16:50:43 2025

Set parameter LogFile to value "C:\Ioana\_uni\honours\slp\algorithm\Main_files\results\others\neuro_new1\Task_357_Sample002_irr_gurobi.log"
Gurobi Optimizer version 12.0.2 build v12.0.2rc0 (win64 - Windows 11.0 (26100.2))

CPU model: Intel(R) Core(TM) Ultra 5 125H, instruction set [SSE2|AVX|AVX2]
Thread count: 14 physical cores, 18 logical processors, using up to 18 threads

Non-default parameters:
TimeLimit  2200

Optimize a model with 47226 rows, 34497 columns and 146684 nonzeros
Model fingerprint: 0x7126171f
Variable types: 17252 continuous, 17245 integer (17245 binary)
Coefficient statistics:
  Matrix range     [1e-04, 8e+04]
  Objective range  [5e-05, 1e+01]
  Bounds range     [1e+00, 1e+03]
  RHS range        [1e+00, 1e+00]
Found heuristic solution: objective 11.7752177
Presolve removed 31134 rows and 21775 columns
Presolve time: 0.34s
Presolved: 16092 rows, 12722 columns, 53479 nonzeros
Variable types: 6301 continuous, 6421 integer (6421 binary)

Root relaxation: objective 1.178311e-05, 5302 iterations, 0.46 seconds (1.06 work units)

    Nodes    |    Current Node    |     Objective Bounds      |     Work
 Expl Unexpl |  Obj  Depth IntInf | Incumbent    BestBd   Gap | It/Node Time

     0     0    0.00001    0    4   11.77522    0.00001   100%     -    0s
H    0     0                       0.0126851    0.00001   100%     -    0s
     0     0    0.00533    0    7    0.01269    0.00533  58.0%     -    0s
     0     0 infeasible    0         0.01269    0.01269  0.00%     -    0s

Explored 1 nodes (5373 simplex iterations) in 0.98 seconds (1.57 work units)
Thread count was 18 (of 18 available processors)

Solution count 2: 0.0126851 11.7752 

Optimal solution found (tolerance 1.00e-04)
Best objective 1.268508938233e-02, best bound 1.268508938233e-02, gap 0.0000%
